N = 9;
H = 5;
T = 2;

avail = array3d(1..N, 1..H, 1..T, [8, 7, 9, 7, 2, 6, 8, 1, 3, 0, 7, 2, 5, 2, 0, 1, 3, 2, 0, 10, 3, 4, 10, 6, 5, 7, 8, 9, 7, 7, 1, 1, 6, 6, 0, 9, 7, 1, 6, 8, 4, 2, 6, 9, 5, 3, 0, 8, 4, 0, 4, 5, 0, 3, 5, 2, 7, 3, 5, 10, 8, 0, 0, 2, 6, 2, 5, 6, 0, 8, 9, 2, 9, 10, 1, 8, 5, 8, 5, 1, 0, 6, 5, 3, 8, 6, 10, 10, 3, 10]);

r = array2d(1..H, 1..T, [4, 2, 4, 3, 3, 2, 2, 0, 3, 2]);
